NAME : XML100_3343_04
DIMENSION : 101
NB_CLUSTERS : 30
CLUSTERING_ALG : DBSCAN
CLUSTERING_PARAMS : eps(16), minSamples(3)
CLUSTERS
1 0
2 21 71 86
3 47 48 62
4 7 20 22 27 41 46 51 90 99
5 14 97
6 25 28 84
7 69 95 98
8 1 16 80 93
9 4 33 57 89
10 15 34 65 78 87 91 94
11 32 49 50 64 76 77
12 38 85 96
13 43 54 63 75
14 12 37 66
15 42 67 81
16 59 70
17 23 74 92
18 8 45 82
19 3 11 19 31
20 10 17 18 44 61
21 24 58 79
22 29 83
23 53 56
24 5 30
25 6 9 13 55 100
26 26 73
27 35 36 68
28 2 39
29 40 60 88
30 52 72
EOF